NAME : XML100_1161_16
DIMENSION : 101
NB_CLUSTERS : 5
CLUSTERING_ALG : KMeans
CLUSTERING_PARAMS : k(4)
CLUSTERS
1 0
2 5 7 12 22 37 40 44 45 46 48 50 52 54 57 62 66 74 90 98
3 1 3 6 10 13 14 16 19 20 23 24 30 33 35 36 49 53 55 59 60 61 64 68 69 71 75 76 77 83 84 88 89 91 94 95 96 99
4 2 4 9 11 15 17 18 21 27 29 34 38 39 51 56 58 65 70 73 79 86 87 92 97
5 8 25 26 28 31 32 41 42 43 47 63 67 72 78 80 81 82 85 93 100
EOF